data/solutions/planning/wellformed/hard/highest_rank_objective/wellformed_hard_instance43_cplex.sol
Elapsed time: 39.33
Nodes explored: 10192
Nodes left: -
Relative gap: -
Upper bound: 547659445.0
Lower bound: -
C[0]=16714.0
C[1]=16714.0
C[2]=16713.0
C[3]=16713.0
C[4]=16713.0
C[5]=16713.0
C[6]=16713.0
C[7]=16713.0
C[8]=16713.0
C[9]=16713.0
C[10]=16713.0
C[11]=16713.0
C[12]=16713.0
C[13]=16713.0
C[14]=16711.0
y[0]=2
y[1]=0
y[2]=14
y[3]=3
y[4]=9
y[5]=14
y[6]=10
y[7]=2
y[8]=5
y[9]=4
y[10]=4
y[11]=6
y[12]=5
y[13]=0
y[14]=6
y[15]=2
y[16]=0
y[17]=5
y[18]=0
y[19]=14
y[20]=4
y[21]=14
y[22]=9
y[23]=8
y[24]=13
y[25]=1
y[26]=4
y[27]=0
y[28]=8
y[29]=2
y[30]=1
y[31]=0
y[32]=3
y[33]=1
y[34]=3
y[35]=4
y[36]=2
y[37]=10
y[38]=12
y[39]=12
y[40]=2
y[41]=10
y[42]=13
y[43]=9
y[44]=14
y[45]=6
y[46]=1
y[47]=14
y[48]=9
y[49]=3
y[50]=1
y[51]=12
y[52]=2
y[53]=12
y[54]=9
y[55]=13
y[56]=2
y[57]=9
y[58]=5
y[59]=0
y[60]=13
y[61]=1
y[62]=3
y[63]=5
y[64]=12
y[65]=3
y[66]=8
y[67]=13
y[68]=2
y[69]=8
y[70]=6
y[71]=12
y[72]=11
y[73]=13
y[74]=1
y[75]=1
y[76]=9
y[77]=11
y[78]=5
y[79]=7
y[80]=4
y[81]=2
y[82]=12
y[83]=13
y[84]=4
y[85]=8
y[86]=6
y[87]=1
y[88]=10
y[89]=1
y[90]=3
y[91]=12
y[92]=9
y[93]=1
y[94]=10
y[95]=13
y[96]=13
y[97]=10
y[98]=1
y[99]=14
y[100]=12
y[101]=7
y[102]=1
y[103]=7
y[104]=1
y[105]=0
y[106]=6
y[107]=4
y[108]=11
y[109]=2
y[110]=10
y[111]=4
y[112]=13
y[113]=0
y[114]=4
y[115]=11
y[116]=9
y[117]=9
y[118]=0
y[119]=9
y[120]=12
y[121]=2
y[122]=0
y[123]=6
y[124]=0
y[125]=11
y[126]=2
y[127]=1
y[128]=3
y[129]=5
y[130]=0
y[131]=13
y[132]=1
y[133]=3
y[134]=14
y[135]=1
y[136]=5
y[137]=14
y[138]=1
y[139]=9
y[140]=5
y[141]=13
y[142]=10
y[143]=5
y[144]=1
y[145]=7
y[146]=0
y[147]=10
y[148]=0
y[149]=11
y[150]=8
y[151]=0
y[152]=1
y[153]=11
y[154]=7
y[155]=1
y[156]=3
y[157]=10
y[158]=0
y[159]=14
y[160]=2
y[161]=2
y[162]=0
y[163]=9
y[164]=1
y[165]=8
y[166]=0
y[167]=7
y[168]=10
y[169]=3
y[170]=1
y[171]=8
y[172]=9
y[173]=7
y[174]=8
y[175]=1
y[176]=2
y[177]=8
y[178]=2
y[179]=9
y[180]=0
y[181]=3
y[182]=14
y[183]=11
y[184]=6
y[185]=1
y[186]=0
y[187]=0
y[188]=11
y[189]=14
y[190]=7
y[191]=0
y[192]=2
y[193]=1
y[194]=5
y[195]=9
y[196]=3
y[197]=13
y[198]=2
y[199]=10
y[200]=10
y[201]=7
y[202]=2
y[203]=1
y[204]=0
y[205]=0
y[206]=12
y[207]=9
y[208]=8
y[209]=1
y[210]=9
y[211]=7
y[212]=0
y[213]=7
y[214]=1
y[215]=9
y[216]=0
y[217]=10
y[218]=11
y[219]=2
y[220]=12
y[221]=11
y[222]=13
y[223]=6
y[224]=12
y[225]=0
y[226]=14
y[227]=3
y[228]=9
y[229]=5
y[230]=11
y[231]=14
y[232]=13
y[233]=9
y[234]=0
y[235]=2
y[236]=1
y[237]=1
y[238]=8
y[239]=8
y[240]=11
y[241]=9
y[242]=8
y[243]=14
y[244]=1
y[245]=3
y[246]=9
y[247]=7
y[248]=0
y[249]=8
y[250]=10
y[251]=10
y[252]=4
y[253]=8
y[254]=2
y[255]=1
y[256]=6
y[257]=6
y[258]=10
y[259]=13
y[260]=7
y[261]=8
y[262]=3
y[263]=0
y[264]=1
y[265]=10
y[266]=11
y[267]=10
y[268]=2
y[269]=0
y[270]=2
y[271]=4
y[272]=4
y[273]=5
y[274]=0
y[275]=12
y[276]=4
y[277]=11
y[278]=8
y[279]=14
y[280]=12
y[281]=9
y[282]=6
y[283]=11
y[284]=0
y[285]=2
y[286]=1
y[287]=14
y[288]=1
y[289]=0
y[290]=14
y[291]=14
y[292]=4
y[293]=6
y[294]=12
y[295]=7
y[296]=3
y[297]=3
y[298]=11
y[299]=14
y[300]=8
y[301]=5
y[302]=6
y[303]=1
y[304]=10
y[305]=13
y[306]=3
y[307]=0
y[308]=1
y[309]=4
y[310]=12
y[311]=1
y[312]=1
y[313]=2
y[314]=6
y[315]=4
y[316]=14
y[317]=9
y[318]=13
y[319]=4
y[320]=10
y[321]=11
y[322]=4
y[323]=1
y[324]=8
y[325]=14
y[326]=0
y[327]=7
y[328]=2
y[329]=2
y[330]=14
y[331]=1
y[332]=2
y[333]=0
y[334]=9
y[335]=12
y[336]=1
y[337]=5
y[338]=14
y[339]=3
y[340]=12
y[341]=0
y[342]=8
y[343]=5
y[344]=1
y[345]=7
y[346]=10
y[347]=13
y[348]=14
y[349]=11
y[350]=0
y[351]=1
y[352]=14
y[353]=1
y[354]=1
y[355]=6
y[356]=3
y[357]=7
y[358]=9
y[359]=2
y[360]=13
y[361]=11
y[362]=5
y[363]=13
y[364]=13
y[365]=7
y[366]=8
y[367]=5
y[368]=3
y[369]=10
y[370]=2
y[371]=2
y[372]=5
y[373]=5
y[374]=5
y[375]=3
y[376]=4
y[377]=0
y[378]=11
y[379]=0
y[380]=8
y[381]=6
y[382]=3
y[383]=12
y[384]=2
y[385]=7
y[386]=6
y[387]=12
y[388]=1
y[389]=10
y[390]=5
y[391]=2
y[392]=3
y[393]=12
y[394]=7
y[395]=5
y[396]=4
y[397]=2
y[398]=10
y[399]=10
y[400]=2
y[401]=0
y[402]=0
y[403]=0
y[404]=0
y[405]=0
y[406]=2
y[407]=6
y[408]=12
y[409]=2
y[410]=3
y[411]=3
y[412]=7
y[413]=2
y[414]=5
y[415]=8
y[416]=2
y[417]=3
y[418]=4
y[419]=1
y[420]=0
y[421]=3
y[422]=12
y[423]=3
y[424]=13
y[425]=3
y[426]=0
y[427]=5
y[428]=12
y[429]=13
y[430]=10
y[431]=4
y[432]=7
y[433]=9
y[434]=12
y[435]=0
y[436]=9
y[437]=5
y[438]=1
y[439]=5
y[440]=0
y[441]=2
y[442]=8
y[443]=1
y[444]=0
y[445]=0
y[446]=7
y[447]=2
y[448]=7
y[449]=13
y[450]=0
y[451]=8
y[452]=4
y[453]=13
y[454]=7
y[455]=5
y[456]=6
y[457]=9
y[458]=3
y[459]=4
y[460]=8
y[461]=0
y[462]=1
y[463]=2
y[464]=13
y[465]=13
y[466]=8
y[467]=1
y[468]=9
y[469]=2
y[470]=13
y[471]=13
y[472]=11
y[473]=13
y[474]=0
y[475]=2
y[476]=1
y[477]=10
y[478]=2
y[479]=12
y[480]=5
y[481]=3
y[482]=14
y[483]=4
y[484]=2
y[485]=3
y[486]=4
y[487]=3
y[488]=2
y[489]=12
y[490]=2
y[491]=5
y[492]=6
y[493]=1
y[494]=14
y[495]=8
y[496]=6
y[497]=1
y[498]=2
y[499]=13
