data/solutions/planning/wellformed/hard/highest_rank_objective/wellformed_hard_instance43_cplex.log
Found incumbent of value 250695.000000 after 0.00 sec. (0.61 ticks)
Tried aggregator 2 times.
Aggregator did 15 substitutions.
Reduced MIP has 515 rows, 7501 columns, and 15015 nonzeros.
Reduced MIP has 7500 binaries, 0 generals, 0 SOSs, and 0 indicators.
Presolve time = 0.02 sec. (13.42 ticks)
Tried aggregator 1 time.
Reduced MIP has 515 rows, 7501 columns, and 15015 nonzeros.
Reduced MIP has 7500 binaries, 1 generals, 0 SOSs, and 0 indicators.
Presolve time = 0.01 sec. (8.35 ticks)
Probing time = 0.00 sec. (2.51 ticks)
Clique table members: 500.
MIP emphasis: balance optimality and feasibility.
MIP search method: dynamic search.
Parallel mode: none, using 1 thread.
Root relaxation solution time = 0.02 sec. (30.26 ticks)

        Nodes                                         Cuts/
   Node  Left     Objective  IInf  Best Integer    Best Bound    ItCnt     Gap

*     0+    0                       250695.0000        0.0000           100.00%
      0     0    16713.0000    27   250695.0000    16713.0000      447   93.33%
*     0+    0                        17316.0000    16713.0000             3.48%
      0     0    16713.0000    26    17316.0000      Fract: 8      453    3.48%
*     0+    0                        17078.0000    16713.0000             2.14%
      0     0    16713.0000    32    17078.0000      Cuts: 15      468    2.14%
*     0+    0                        17052.0000    16713.0000             1.99%
      0     0    16713.0000    33    17052.0000      Cuts: 11      480    1.99%
*     0+    0                        16986.0000    16713.0000             1.61%
*     0+    0                        16974.0000    16713.0000             1.54%
*     0+    0                        16947.0000    16713.0000             1.38%
*     0+    0                        16946.0000    16713.0000             1.37%
*     0+    0                        16922.0000    16713.0000             1.24%
*     0+    0                        16911.0000    16713.0000             1.17%
*     0+    0                        16904.0000    16713.0000             1.13%
*     0+    0                        16894.0000    16713.0000             1.07%
*     0+    0                        16890.0000    16713.0000             1.05%
*     0+    0                        16880.0000    16713.0000             0.99%
*     0+    0                        16819.0000    16713.0000             0.63%
*     0+    0                        16818.0000    16713.0000             0.62%
*     0+    0                        16794.0000    16713.0000             0.48%
*     0+    0                        16788.0000    16713.0000             0.45%
*     0+    0                        16786.0000    16713.0000             0.43%
*     0+    0                        16774.0000    16713.0000             0.36%
*     0+    0                        16770.0000    16713.0000             0.34%
      0     2    16713.0000    28    16770.0000    16713.0000      489    0.34%
Elapsed time = 0.65 sec. (833.31 ticks, tree = 0.01 MB, solutions = 21)
     73    75    16713.0000    24    16770.0000    16713.0000      796    0.34%
     74    76    16713.0000    24    16770.0000    16713.0000      799    0.34%
     75    77    16713.0000    25    16770.0000    16713.0000      803    0.34%
     76    78    16713.0000    25    16770.0000    16713.0000      806    0.34%
     77    79    16713.0000    25    16770.0000    16713.0000      810    0.34%
     78    80    16713.0000    23    16770.0000    16713.0000      816    0.34%
     79    81    16713.0000    26    16770.0000    16713.0000      823    0.34%
     80    82    16713.0000    24    16770.0000    16713.0000      827    0.34%
     81    83    16713.0000    23    16770.0000    16713.0000      833    0.34%
    325   327    16713.0000    22    16770.0000    16713.0000     2803    0.34%
Elapsed time = 1.29 sec. (1788.21 ticks, tree = 3.10 MB, solutions = 21)
*   508+  338                        16762.0000    16713.0000             0.29%
    508   339    16713.0000    27    16762.0000    16713.0000     4964    0.29%
    509   340    16713.0000    26    16762.0000    16713.0000     4969    0.29%
    510   341    16713.0000    24    16762.0000    16713.0000     4974    0.29%
    511   342    16713.0000    25    16762.0000    16713.0000     4980    0.29%
    512   343    16713.0000    25    16762.0000    16713.0000     4982    0.29%
    513   344    16713.0000    26    16762.0000    16713.0000     4990    0.29%
    514   345    16713.0000    27    16762.0000    16713.0000     5001    0.29%
    515   345    16713.0000    25    16762.0000    16713.0000     5007    0.29%
    516   345    16713.0000    26    16762.0000    16713.0000     5015    0.29%
    517   345    16713.0000    28    16762.0000    16713.0000     5020    0.29%
Elapsed time = 2.80 sec. (3824.56 ticks, tree = 3.36 MB, solutions = 22)
    608   398    16713.0000    26    16762.0000    16713.0000     5537    0.29%
    609   399    16713.0000    26    16762.0000    16713.0000     5548    0.29%
    610   400    16713.0000    25    16762.0000    16713.0000     5550    0.29%
    611   400    16713.0000    25    16762.0000    16713.0000     5553    0.29%
    612   401    16713.0000    26    16762.0000    16713.0000     5566    0.29%
    613   401    16713.0000    25    16762.0000    16713.0000     5577    0.29%
    614   401    16713.0000    25    16762.0000    16713.0000     5589    0.29%
    615   402    16713.0000    26    16762.0000    16713.0000     5598    0.29%
    616   403    16713.0000    26    16762.0000    16713.0000     5612    0.29%
    617   404    16713.0000    25    16762.0000    16713.0000     5621    0.29%
Elapsed time = 3.48 sec. (4918.65 ticks, tree = 3.87 MB, solutions = 22)
    710   457    16713.0000    24    16762.0000    16713.0000     6774    0.29%
    711   457    16713.0000    23    16762.0000    16713.0000     6787    0.29%
    712   458    16713.0000    25    16762.0000    16713.0000     6797    0.29%
    713   459    16713.0000    24    16762.0000    16713.0000     6815    0.29%
    714   460    16713.0000    24    16762.0000    16713.0000     6820    0.29%
    715   460    16713.0000    24    16762.0000    16713.0000     6823    0.29%
    716   461    16713.0000    24    16762.0000    16713.0000     6829    0.29%
    717   461    16713.0000    24    16762.0000    16713.0000     6830    0.29%
    718   461    16713.0000    24    16762.0000    16713.0000     6831    0.29%
    719   462    16713.0000    24    16762.0000    16713.0000     6832    0.29%
Elapsed time = 4.12 sec. (5939.95 ticks, tree = 4.44 MB, solutions = 22)
    834   521    16713.0000    25    16762.0000    16713.0000     7657    0.29%
    835   522    16713.0000    25    16762.0000    16713.0000     7665    0.29%
    836   523    16713.0000    24    16762.0000    16713.0000     7684    0.29%
    837   523    16713.0000    24    16762.0000    16713.0000     7686    0.29%
    838   524    16713.0000    25    16762.0000    16713.0000     7713    0.29%
    839   525    16713.0000    24    16762.0000    16713.0000     7717    0.29%
    840   526    16713.0000    25    16762.0000    16713.0000     7731    0.29%
    841   527    16713.0000    24    16762.0000    16713.0000     7737    0.29%
    842   528    16713.0000    24    16762.0000    16713.0000     7744    0.29%
    843   528    16713.0000    24    16762.0000    16713.0000     7751    0.29%
Elapsed time = 4.82 sec. (6958.71 ticks, tree = 5.13 MB, solutions = 22)
    993   613    16713.0000    25    16762.0000    16713.0000     9021    0.29%
    994   614    16713.0000    25    16762.0000    16713.0000     9023    0.29%
    995   615    16713.0000    25    16762.0000    16713.0000     9037    0.29%
    996   616    16713.0000    25    16762.0000    16713.0000     9045    0.29%
    997   617    16713.0000    23    16762.0000    16713.0000     9077    0.29%
    998   617    16713.0000    24    16762.0000    16713.0000     9090    0.29%
    999   618    16713.0000    23    16762.0000    16713.0000     9093    0.29%
   1000   619    16713.0000    23    16762.0000    16713.0000     9110    0.29%
   1001   620    16713.0000    22    16762.0000    16713.0000     9118    0.29%
   1002   620    16713.0000    23    16762.0000    16713.0000     9143    0.29%
Elapsed time = 5.47 sec. (7966.19 ticks, tree = 6.17 MB, solutions = 22)
   1170   720    16713.0000    25    16762.0000    16713.0000    10612    0.29%
   1171   721    16713.0000    25    16762.0000    16713.0000    10614    0.29%
   1172   721    16713.0000    25    16762.0000    16713.0000    10617    0.29%
   1173   721    16713.0000    25    16762.0000    16713.0000    10619    0.29%
   1174   721    16713.0000    25    16762.0000    16713.0000    10621    0.29%
   1175   721    16713.0000    24    16762.0000    16713.0000    10635    0.29%
   1176   722    16713.0000    26    16762.0000    16713.0000    10647    0.29%
   1177   723    16713.0000    23    16762.0000    16713.0000    10656    0.29%
   1178   724    16713.0000    25    16762.0000    16713.0000    10673    0.29%
   1179   725    16713.0000    25    16762.0000    16713.0000    10674    0.29%
Elapsed time = 6.12 sec. (8954.13 ticks, tree = 7.47 MB, solutions = 22)
*  1238+  726                        16754.0000    16713.0000             0.24%
*  1268+  728                        16749.0000    16713.0000             0.21%
*  1278+  736                        16748.0000    16713.0000             0.21%
*  1286   731      integral     0    16738.0000    16713.0000    11294    0.15%
*  1308+  748                        16737.0000    16713.0000             0.14%
*  1308+  747                        16736.0000    16713.0000             0.14%
*  1338+  754                        16726.0000    16713.0000             0.08%
*  1348+  661                        16719.0000    16713.0000             0.04%
   1388   700    16713.0000    22    16719.0000    16713.0000    11880    0.04%
   1389   701    16713.0000    21    16719.0000    16713.0000    11903    0.04%
   1390   702    16713.0000    21    16719.0000    16713.0000    11917    0.04%
   1391   703    16713.0000    21    16719.0000    16713.0000    11933    0.04%
   1392   704    16713.0000    21    16719.0000    16713.0000    11952    0.04%
   1393   705    16713.0000    21    16719.0000    16713.0000    11969    0.04%
   1394   706    16713.0000    21    16719.0000    16713.0000    11970    0.04%
   1395   707    16713.0000    21    16719.0000    16713.0000    11974    0.04%
   1396   708    16713.0000    21    16719.0000    16713.0000    11997    0.04%
   1397   709    16713.0000    21    16719.0000    16713.0000    12001    0.04%
Elapsed time = 6.74 sec. (9987.41 ticks, tree = 7.32 MB, solutions = 30)
   1474   786    16713.0000    22    16719.0000    16713.0000    13835    0.04%
   1475   787    16713.0000    23    16719.0000    16713.0000    13850    0.04%
   1476   788    16713.0000    23    16719.0000    16713.0000    13853    0.04%
   1477   789    16713.0000    23    16719.0000    16713.0000    13857    0.04%
   1478   790    16713.0000    23    16719.0000    16713.0000    13860    0.04%
   1479   791    16713.0000    23    16719.0000    16713.0000    13862    0.04%
   1480   792    16713.0000    23    16719.0000    16713.0000    13864    0.04%
   1481   793    16713.0000    23    16719.0000    16713.0000    13866    0.04%
   1482   794    16713.0000    24    16719.0000    16713.0000    13884    0.04%
   1483   795    16713.0000    23    16719.0000    16713.0000    13888    0.04%
Elapsed time = 7.40 sec. (10964.59 ticks, tree = 8.18 MB, solutions = 30)
   1628   940    16713.0000    20    16719.0000    16713.0000    15233    0.04%
   1629   941    16713.0000    21    16719.0000    16713.0000    15241    0.04%
   1630   942    16713.0000    21    16719.0000    16713.0000    15253    0.04%
   1631   943    16713.0000    22    16719.0000    16713.0000    15258    0.04%
   1632   944    16713.0000    21    16719.0000    16713.0000    15266    0.04%
   1633   945    16713.0000    22    16719.0000    16713.0000    15280    0.04%
   1634   946    16713.0000    22    16719.0000    16713.0000    15283    0.04%
   1635   947    16713.0000    22    16719.0000    16713.0000    15299    0.04%
   1636   948    16713.0000    23    16719.0000    16713.0000    15305    0.04%
   2438  1737    16713.0000    23    16719.0000    16713.0000    20712    0.04%
Elapsed time = 9.81 sec. (14783.29 ticks, tree = 18.65 MB, solutions = 30)
*  2688+ 1964                        16718.0000    16713.0000             0.03%
*  2708+ 1954                        16717.0000    16713.0000             0.02%
*  2868+ 1912                        16716.0000    16713.0000             0.02%
   4482  3444    16713.0000    22    16716.0000    16713.0000    32024    0.02%
   4483  3445    16713.0000    24    16716.0000    16713.0000    32026    0.02%
   4484  3446    16713.0000    23    16716.0000    16713.0000    32033    0.02%
   4485  3447    16713.0000    24    16716.0000    16713.0000    32039    0.02%
   4486  3448    16713.0000    23    16716.0000    16713.0000    32044    0.02%
   4487  3449    16713.0000    23    16716.0000    16713.0000    32056    0.02%
   4488  3450    16713.0000    23    16716.0000    16713.0000    32065    0.02%
   4489  3451    16713.0000    23    16716.0000    16713.0000    32072    0.02%
   4490  3452    16713.0000    23    16716.0000    16713.0000    32076    0.02%
   4491  3453    16713.0000    23    16716.0000    16713.0000    32077    0.02%
Elapsed time = 12.20 sec. (18616.05 ticks, tree = 38.07 MB, solutions = 33)
*  5397  3706      integral     0    16715.0000    16713.0000    35079    0.01%
   7260  4837    16714.0000    14    16715.0000    16713.0000    40869    0.01%
   7261  4838    16714.0000    12    16715.0000    16713.0000    40871    0.01%
   7262  4837        cutoff          16715.0000    16713.0000    40877    0.01%
   7263  4836        cutoff          16715.0000    16713.0000    40880    0.01%
   7264  4837    16713.1111    15    16715.0000    16713.0000    40892    0.01%
   7265  4838    16713.1111    16    16715.0000    16713.0000    40894    0.01%
   7266  4839    16713.1111    15    16715.0000    16713.0000    40895    0.01%
   7267  4840    16713.1111    15    16715.0000    16713.0000    40896    0.01%
   7268  4841    16713.1111    14    16715.0000    16713.0000    40897    0.01%
   7269  4842    16713.1111    15    16715.0000    16713.0000    40899    0.01%
Elapsed time = 14.53 sec. (22446.74 ticks, tree = 54.47 MB, solutions = 34)
   9756  6292        cutoff          16715.0000    16713.0000    48637    0.01%
   9757  6293    16713.0000     8    16715.0000    16713.0000    48639    0.01%
   9758  6294    16713.0000    10    16715.0000    16713.0000    48643    0.01%
   9759  6295    16713.0000     9    16715.0000    16713.0000    48644    0.01%
   9760  6294        cutoff          16715.0000    16713.0000    48649    0.01%
   9761  6295    16713.4286    12    16715.0000    16713.0000    48659    0.01%
   9762  6296    16713.4286    12    16715.0000    16713.0000    48665    0.01%
   9763  6297    16713.4286    12    16715.0000    16713.0000    48666    0.01%
   9764  6296        cutoff          16715.0000    16713.0000    48672    0.01%
   9765  6295        cutoff          16715.0000    16713.0000    48680    0.01%
Elapsed time = 17.04 sec. (26280.67 ticks, tree = 71.59 MB, solutions = 34)
*  9863  3847      integral     0    16714.0000    16713.0000    49050    0.01%

Mixed integer rounding cuts applied:  3

Root node processing (before b&c):
  Real time             =    0.65 sec. (834.87 ticks)
Sequential b&c:
  Real time             =   16.52 sec. (25685.78 ticks)
                          ------------
Total (root+branch&cut) =   17.17 sec. (26520.64 ticks)

Populate: phase II 
Tried aggregator 2 times.
Aggregator did 15 substitutions.
Reduced MIP has 515 rows, 7501 columns, and 15015 nonzeros.
Reduced MIP has 7500 binaries, 0 generals, 0 SOSs, and 0 indicators.
Presolve time = 0.02 sec. (13.42 ticks)
Probing time = 0.00 sec. (2.51 ticks)
Clique table members: 500.
MIP emphasis: balance optimality and feasibility.
MIP search method: dynamic search.
Parallel mode: none, using 1 thread.
Root relaxation solution time = 0.02 sec. (30.26 ticks)

        Nodes                                         Cuts/
   Node  Left     Objective  IInf  Best Integer    Best Bound    ItCnt     Gap

*     0+    0                        16714.0000        0.0000           100.00%
      0     0    16713.0000    27    16714.0000    16713.0000      447    0.01%
      0     2    16713.0000    27    16714.0000    16713.0000      447    0.01%
Elapsed time = 0.47 sec. (574.23 ticks, tree = 0.01 MB, solutions = 60)
      1     3    16713.0000    26    16714.0000    16713.0000      451    0.01%
      2     4    16713.0000    26    16714.0000    16713.0000      453    0.01%
      3     5    16713.0000    24    16714.0000    16713.0000      458    0.01%
      4     6    16713.0000    24    16714.0000    16713.0000      462    0.01%
      5     7    16713.0000    24    16714.0000    16713.0000      464    0.01%
      6     8    16713.0000    24    16714.0000    16713.0000      468    0.01%
      7     9    16713.0000    24    16714.0000    16713.0000      469    0.01%
      8    10    16713.0000    24    16714.0000    16713.0000      474    0.01%
      9    11    16713.0000    26    16714.0000    16713.0000      478    0.01%
     10    12    16713.0000    24    16714.0000    16713.0000      481    0.01%
Elapsed time = 3.47 sec. (3833.51 ticks, tree = 0.08 MB, solutions = 230)
     28    30    16713.0000    25    16714.0000    16713.0000      529    0.01%
     29    31    16713.0000    25    16714.0000    16713.0000      533    0.01%
     30    32    16713.0000    24    16714.0000    16713.0000      535    0.01%
     31    33    16713.0000    24    16714.0000    16713.0000      536    0.01%
     32    34    16713.0000    25    16714.0000    16713.0000      544    0.01%
     33    35    16713.0000    24    16714.0000    16713.0000      545    0.01%
     34    36    16713.0000    26    16714.0000    16713.0000      549    0.01%
     35    37    16713.0000    25    16714.0000    16713.0000      551    0.01%
     36    38    16713.0000    25    16714.0000    16713.0000      553    0.01%
     37    39    16713.0000    24    16714.0000    16713.0000      558    0.01%
Elapsed time = 5.08 sec. (5258.38 ticks, tree = 0.33 MB, solutions = 376)
     53    55    16713.0000    25    16714.0000    16713.0000      645    0.01%
     54    56    16713.0000    25    16714.0000    16713.0000      646    0.01%
     55    57    16713.0000    26    16714.0000    16713.0000      650    0.01%
     56    58    16713.0000    26    16714.0000    16713.0000      654    0.01%
     57    59    16713.0000    24    16714.0000    16713.0000      656    0.01%
     58    60    16713.0000    24    16714.0000    16713.0000      661    0.01%
     59    61    16713.0000    24    16714.0000    16713.0000      665    0.01%
     60    62    16713.0000    23    16714.0000    16713.0000      669    0.01%
     61    63    16713.0000    24    16714.0000    16713.0000      676    0.01%
     62    64    16713.0000    22    16714.0000    16713.0000      681    0.01%
Elapsed time = 6.70 sec. (6712.16 ticks, tree = 0.55 MB, solutions = 520)
     78    80    16713.0000    23    16714.0000    16713.0000      746    0.01%
     79    81    16713.0000    23    16714.0000    16713.0000      752    0.01%
     80    82    16713.0000    23    16714.0000    16713.0000      755    0.01%
     81    83    16713.0000    24    16714.0000    16713.0000      760    0.01%
     82    84    16713.0000    23    16714.0000    16713.0000      762    0.01%
     83    85    16713.0000    24    16714.0000    16713.0000      768    0.01%
     84    86    16713.0000    24    16714.0000    16713.0000      772    0.01%
     85    87    16713.0000    23    16714.0000    16713.0000      776    0.01%
     86    88    16713.0000    22    16714.0000    16713.0000      781    0.01%
     87    89    16713.0000    24    16714.0000    16713.0000      791    0.01%
Elapsed time = 8.36 sec. (8172.30 ticks, tree = 0.77 MB, solutions = 679)
    104   106    16713.0000    21    16714.0000    16713.0000      873    0.01%
    105   107    16713.0000    20    16714.0000    16713.0000      877    0.01%
    106   108    16713.0000    20    16714.0000    16713.0000      882    0.01%
    107   109    16713.0000    20    16714.0000    16713.0000      887    0.01%
    108   110    16713.0000    21    16714.0000    16713.0000      893    0.01%
    109   111    16713.0000    23    16714.0000    16713.0000      908    0.01%
    110   112    16713.0000    20    16714.0000    16713.0000      911    0.01%
    111   113    16713.0000    20    16714.0000    16713.0000      914    0.01%
    112   114    16713.0000    22    16714.0000    16713.0000      923    0.01%
    113   115    16713.0000    20    16714.0000    16713.0000      924    0.01%
Elapsed time = 10.11 sec. (9693.88 ticks, tree = 1.00 MB, solutions = 887)
    133   135    16713.0000    22    16714.0000    16713.0000     1042    0.01%
    134   136    16713.0000    22    16714.0000    16713.0000     1056    0.01%
    135   137    16713.0000    23    16714.0000    16713.0000     1058    0.01%
    136   138    16713.0000    22    16714.0000    16713.0000     1065    0.01%
    137   139    16713.0000    22    16714.0000    16713.0000     1067    0.01%
    138   140    16713.0000    22    16714.0000    16713.0000     1072    0.01%
    139   141    16713.0000    23    16714.0000    16713.0000     1077    0.01%
    140   142    16713.0000    21    16714.0000    16713.0000     1079    0.01%
    141   143    16713.0000    22    16714.0000    16713.0000     1086    0.01%
    142   144    16713.0000    21    16714.0000    16713.0000     1089    0.01%
Elapsed time = 11.87 sec. (11266.24 ticks, tree = 1.28 MB, solutions = 1085)
    163   165    16713.0000    22    16714.0000    16713.0000     1223    0.01%
    164   166    16713.0000    21    16714.0000    16713.0000     1225    0.01%
    165   167    16713.0000    21    16714.0000    16713.0000     1230    0.01%
    166   168    16713.0000    21    16714.0000    16713.0000     1231    0.01%
    167   169    16713.0000    21    16714.0000    16713.0000     1240    0.01%
    168   170    16713.0000    21    16714.0000    16713.0000     1242    0.01%
    169   171    16713.0000    23    16714.0000    16713.0000     1257    0.01%
    170   172    16713.0000    21    16714.0000    16713.0000     1260    0.01%
    171   173    16713.0000    23    16714.0000    16713.0000     1270    0.01%
    172   174    16713.0000    22    16714.0000    16713.0000     1274    0.01%
Elapsed time = 13.32 sec. (12585.54 ticks, tree = 1.56 MB, solutions = 1202)
    192   194    16713.0000    23    16714.0000    16713.0000     1365    0.01%
    193   195    16713.0000    22    16714.0000    16713.0000     1368    0.01%
    194   196    16713.0000    21    16714.0000    16713.0000     1372    0.01%
    195   197    16713.0000    20    16714.0000    16713.0000     1376    0.01%
    196   198    16713.0000    20    16714.0000    16713.0000     1384    0.01%
    197   199    16713.0000    20    16714.0000    16713.0000     1389    0.01%
    198   200    16713.0000    20    16714.0000    16713.0000     1394    0.01%
    199   201    16713.0000    20    16714.0000    16713.0000     1398    0.01%
    200   202    16713.0000    20    16714.0000    16713.0000     1403    0.01%
    201   203    16713.0000    20    16714.0000    16713.0000     1406    0.01%
Elapsed time = 14.97 sec. (14047.05 ticks, tree = 1.83 MB, solutions = 1333)
    223   225    16713.0000    22    16714.0000    16713.0000     1542    0.01%
    224   226    16713.0000    21    16714.0000    16713.0000     1543    0.01%
    225   227    16713.0000    23    16714.0000    16713.0000     1557    0.01%
    226   228    16713.0000    22    16714.0000    16713.0000     1559    0.01%
    227   229    16713.0000    21    16714.0000    16713.0000     1561    0.01%
    228   230    16713.0000    22    16714.0000    16713.0000     1577    0.01%
    229   231    16713.0000    21    16714.0000    16713.0000     1578    0.01%
    230   232    16713.0000    22    16714.0000    16713.0000     1590    0.01%
    231   233    16713.0000    22    16714.0000    16713.0000     1591    0.01%
    232   234    16713.0000    23    16714.0000    16713.0000     1595    0.01%
Elapsed time = 16.41 sec. (15317.41 ticks, tree = 2.11 MB, solutions = 1466)
    252   254    16713.0000    23    16714.0000    16713.0000     1679    0.01%
    253   255    16713.0000    22    16714.0000    16713.0000     1684    0.01%
    254   256    16713.0000    22    16714.0000    16713.0000     1686    0.01%
    255   257    16713.0000    23    16714.0000    16713.0000     1690    0.01%
    256   258    16713.0000    23    16714.0000    16713.0000     1691    0.01%
    257   259    16713.0000    23    16714.0000    16713.0000     1693    0.01%
    258   260    16713.0000    21    16714.0000    16713.0000     1695    0.01%
    259   261    16713.0000    22    16714.0000    16713.0000     1701    0.01%
    260   262    16713.0000    20    16714.0000    16713.0000     1704    0.01%
    308   310    16713.0000    22    16714.0000    16713.0000     1973    0.01%
Elapsed time = 20.84 sec. (19200.02 ticks, tree = 2.84 MB, solutions = 1935)

Root node processing (before b&c):
  Real time             =    0.58 sec. (676.27 ticks)
Sequential b&c:
  Real time             =   21.57 sec. (19662.39 ticks)
                          ------------
Total (root+branch&cut) =   22.15 sec. (20338.65 ticks)
